c defined variables: 33 34 35 36 37 38 39 40 41 42 43 44 45 46 47 48 49 50 51 52 53 54 55 56 57 58 59 60 61 62 63 64 65 66 67 68 69 70 71 72 73 74 75 76 77 78 79 80 81 82 83 84 85 86 87 88 89 90 91 92 93 94 95 96 97 98 99 100 101 102 103 104 105 106 107 108 109 110 111 112 113 114 115 116 117 118 119 120 121 122 123 124 125 126 127 128 129 130 131 132 133 134 135 136 137 138 139 140 141 142 143 144 145 146 147 148 149 150 151 152 153 154 155 156 157 158 159 160 161 162 163 164 165 166 167 179 180 181 182 183 184 185 186 187 188 189 190 191 192 193 194 195 196 197 198 199 200 201 202 203 204 205 206 207 208 209 210 211 212 213 214 215 216 217 218 219 220 221 222 223 224 225 226 227 228 229 230 231 232 233 234 235 236 237 238 239 240 241 242 243 244 245 246 247 248 249 250 251 252 253 254 255 256 257 258 259 260 261 262 263 264 265 266 267 268 269 270 271 272 273 274 275 276 277 278 279 280 281 282 283 284 285 286 287 288 289 290 291 292 293 294 295 296 297 298 299 300 301 302 303 304 305 306 310 311 312 313 314 315 316 317 318 
p cnf 1414 2127
a 1 2 3 4 5 6 7 8 9 10 11 12 13 14 15 16 17 18 19 20 21 22 23 24 25 26 27 28 29 30 31 32 171 172 173 174 175 176 177 178 0
e 33 34 35 36 37 38 39 40 41 42 43 44 45 46 47 48 49 50 51 52 53 54 55 56 57 58 59 60 61 62 63 64 65 66 67 68 69 70 71 72 73 74 75 76 77 78 79 80 81 82 83 84 85 86 87 88 89 90 91 92 93 94 95 96 97 98 99 100 101 102 103 104 105 106 107 108 109 110 111 112 113 114 115 116 117 118 119 120 121 122 123 124 125 126 127 128 129 130 131 132 133 134 135 136 137 138 139 140 141 142 143 144 145 146 147 148 149 150 151 152 153 154 155 156 157 158 159 160 161 162 163 164 165 166 167 179 180 181 182 183 184 185 186 187 188 189 190 191 192 193 194 195 196 197 198 199 200 201 202 203 204 205 206 207 208 209 210 211 212 213 214 215 216 217 218 219 220 221 222 223 224 225 226 227 228 229 230 231 232 233 234 235 236 237 238 239 240 241 242 243 244 245 246 247 248 249 250 251 252 253 254 255 256 257 258 259 260 261 262 263 264 265 266 267 268 269 270 271 272 273 274 275 276 277 278 279 280 281 282 283 284 285 286 287 288 289 290 291 292 293 294 295 296 297 298 299 300 301 302 303 304 305 306 310 311 312 313 314 315 316 317 318 1171 1172 1173 1174 1175 1176 1177 1178 1179 1180 1181 1182 1183 1184 1185 1186 1187 1188 1189 1190 1191 1192 1193 1194 1195 1196 1197 1198 1199 1200 1201 1202 1203 1204 1205 1206 1207 1208 1209 1210 1211 1212 1213 1214 1215 1216 1217 1218 1219 1220 1221 1222 1223 1224 1225 1226 1227 1228 1229 1230 1231 1232 1233 1234 1235 1236 1237 1238 1239 1240 1241 1242 1243 1244 1245 1246 1247 1248 1249 1250 1251 1252 1253 1254 1255 1256 1257 1258 1259 1260 1261 1262 1263 1264 1265 1266 1267 1268 1269 1270 1271 1272 1273 1274 1275 1276 1277 1278 1279 1280 1281 1282 1283 1284 1285 1286 1287 1288 1289 1290 1291 1292 1293 1294 1295 1296 1297 1298 1299 1300 1301 1302 1303 1304 1305 1306 1307 1308 1309 1310 1311 1312 1313 1314 1315 1316 1317 1318 1319 1320 1321 1322 1323 1324 1325 1326 1327 1328 1329 1330 1331 1332 1333 1334 1335 1336 1337 1338 1339 1340 1341 1342 1343 1344 1345 1346 1347 1348 1349 1350 1351 1352 1353 1354 1355 1356 1357 1358 1359 1360 1361 1362 1363 1364 1365 1366 1367 1368 1369 1370 1371 1372 1373 1374 1375 1376 1377 1378 1379 1380 1381 1382 1383 1384 1385 1386 1387 1388 1389 1390 1391 1392 1393 1394 1395 1396 1397 1398 1399 1400 1401 1402 1403 1404 1405 1406 1407 1408 1409 1410 1411 1412 1413 1414 0
d 169 171 172 173 174 175 176 177 0
d 170 178 171 172 173 0
d 168 171 172 173 174 175 176 177 178 0
d 307 1 2 3 4 5 6 7 8 9 10 11 12 13 14 15 16 17 18 19 20 21 22 23 24 25 26 27 28 29 30 31 32 171 172 173 174 175 176 177 178 0
d 308 1 2 3 4 5 6 7 8 9 10 11 12 13 14 15 16 17 18 19 20 21 22 23 24 25 26 27 28 29 30 31 32 171 172 173 174 175 176 177 178 0
d 309 1 2 3 4 5 6 7 8 9 10 11 12 13 14 15 16 17 18 19 20 21 22 23 24 25 26 27 28 29 30 31 32 171 172 173 174 175 176 177 178 0
1171 -33 0
-1171 33 0
1172 -34 0
-1172 34 0
-1173 -35 0
1173 35 0
1174 -36 0
-1174 36 0
1175 -37 0
-1175 37 0
-1176 -38 0
1176 38 0
1177 -39 0
-1177 39 0
1178 -40 0
-1178 40 0
-1179 -41 0
1179 41 0
-12 -42 0
12 42 0
-1180 -43 0
1180 43 0
-11 -44 0
11 44 0
-1181 -45 0
1181 45 0
-10 -46 0
10 46 0
-1182 -47 0
1182 47 0
-9 -48 0
9 48 0
-1183 -49 0
1183 49 0
-49 -50 0
49 50 0
1184 -51 0
-1184 51 0
1186 -52 0
-1186 52 0
1188 -53 0
-1188 53 0
-1191 -54 0
1191 54 0
1192 -55 0
-1192 55 0
1193 -56 0
-1193 56 0
-1194 -57 0
1194 57 0
1195 -58 0
-1195 58 0
1196 -59 0
-1196 59 0
1197 -60 0
-1197 60 0
1198 -61 0
-1198 61 0
-1199 -62 0
1199 62 0
1200 -63 0
-1200 63 0
1201 -64 0
-1201 64 0
-1202 -65 0
1202 65 0
1203 -66 0
-1203 66 0
1204 -67 0
-1204 67 0
-1205 -68 0
1205 68 0
1206 -69 0
-1206 69 0
1207 -70 0
-1207 70 0
-1208 -71 0
1208 71 0
-8 -72 0
8 72 0
-1209 -73 0
1209 73 0
-7 -74 0
7 74 0
-1210 -75 0
1210 75 0
-6 -76 0
6 76 0
-1211 -77 0
1211 77 0
-5 -78 0
5 78 0
-1212 -79 0
1212 79 0
-79 -80 0
79 80 0
1213 -81 0
-1213 81 0
1215 -82 0
-1215 82 0
1217 -83 0
-1217 83 0
-1220 -84 0
1220 84 0
1221 -85 0
-1221 85 0
1222 -86 0
-1222 86 0
-1223 -87 0
1223 87 0
1224 -88 0
-1224 88 0
1225 -89 0
-1225 89 0
1226 -90 0
-1226 90 0
1227 -91 0
-1227 91 0
-1228 -92 0
1228 92 0
1229 -93 0
-1229 93 0
1230 -94 0
-1230 94 0
-1231 -95 0
1231 95 0
1232 -96 0
-1232 96 0
1233 -97 0
-1233 97 0
-1234 -98 0
1234 98 0
1235 -99 0
-1235 99 0
1236 -100 0
-1236 100 0
-1237 -101 0
1237 101 0
-4 -102 0
4 102 0
-1238 -103 0
1238 103 0
-3 -104 0
3 104 0
-1239 -105 0
1239 105 0
-2 -106 0
2 106 0
-1240 -107 0
1240 107 0
-1 -108 0
1 108 0
-1241 -109 0
1241 109 0
-109 -110 0
109 110 0
1242 -111 0
-1242 111 0
1244 -112 0
-1244 112 0
1246 -113 0
-1246 113 0
-1249 -114 0
1249 114 0
1250 -115 0
-1250 115 0
1251 -116 0
-1251 116 0
-1252 -117 0
1252 117 0
1253 -118 0
-1253 118 0
1254 -119 0
-1254 119 0
1255 -120 0
-1255 120 0
1256 -121 0
-1256 121 0
-1257 -122 0
1257 122 0
1258 -123 0
-1258 123 0
1259 -124 0
-1259 124 0
-1260 -125 0
1260 125 0
1261 -126 0
-1261 126 0
1262 -127 0
-1262 127 0
-1263 -128 0
1263 128 0
1264 -129 0
-1264 129 0
1265 -130 0
-1265 130 0
-1266 -131 0
1266 131 0
-16 -132 0
16 132 0
-1267 -133 0
1267 133 0
-15 -134 0
15 134 0
-1268 -135 0
1268 135 0
-14 -136 0
14 136 0
-1269 -137 0
1269 137 0
-13 -138 0
13 138 0
-1270 -139 0
1270 139 0
-139 -140 0
139 140 0
1271 -141 0
-1271 141 0
1273 -142 0
-1273 142 0
1275 -143 0
-1275 143 0
-1278 -144 0
1278 144 0
1279 -145 0
-1279 145 0
1280 -146 0
-1280 146 0
-1281 -147 0
1281 147 0
1282 -148 0
-1282 148 0
1283 -149 0
-1283 149 0
-144 -150 0
144 150 0
-1284 -151 0
1284 151 0
-54 -152 0
54 152 0
-1285 -153 0
1285 153 0
-84 -154 0
84 154 0
-1286 -155 0
1286 155 0
-114 -156 0
114 156 0
-1287 -157 0
1287 157 0
-157 -158 0
157 158 0
1288 -159 0
-1288 159 0
1290 -160 0
-1290 160 0
1292 -161 0
-1292 161 0
-1295 -162 0
1295 162 0
1296 -163 0
-1296 163 0
1297 -164 0
-1297 164 0
-1298 -165 0
1298 165 0
1299 -166 0
-1299 166 0
1300 -167 0
-1300 167 0
1171 -179 0
-1171 179 0
1172 -180 0
-1172 180 0
-1301 -181 0
1301 181 0
1174 -182 0
-1174 182 0
1175 -183 0
-1175 183 0
-1302 -184 0
1302 184 0
1177 -185 0
-1177 185 0
1178 -186 0
-1178 186 0
-1303 -187 0
1303 187 0
-12 -188 0
12 188 0
-1304 -189 0
1304 189 0
-11 -190 0
11 190 0
-1305 -191 0
1305 191 0
-10 -192 0
10 192 0
-1306 -193 0
1306 193 0
-9 -194 0
9 194 0
-1307 -195 0
1307 195 0
-195 -196 0
195 196 0
1308 -197 0
-1308 197 0
1310 -198 0
-1310 198 0
1312 -199 0
-1312 199 0
-1315 -200 0
1315 200 0
1192 -201 0
-1192 201 0
1193 -202 0
-1193 202 0
-1316 -203 0
1316 203 0
1317 -204 0
-1317 204 0
1318 -205 0
-1318 205 0
1319 -206 0
-1319 206 0
1320 -207 0
-1320 207 0
-1321 -208 0
1321 208 0
1200 -209 0
-1200 209 0
1201 -210 0
-1201 210 0
-1322 -211 0
1322 211 0
1203 -212 0
-1203 212 0
1204 -213 0
-1204 213 0
-1323 -214 0
1323 214 0
1206 -215 0
-1206 215 0
1207 -216 0
-1207 216 0
-1324 -217 0
1324 217 0
-8 -218 0
8 218 0
-1325 -219 0
1325 219 0
-7 -220 0
7 220 0
-1326 -221 0
1326 221 0
-6 -222 0
6 222 0
-1327 -223 0
1327 223 0
-5 -224 0
5 224 0
-1328 -225 0
1328 225 0
-225 -226 0
225 226 0
1329 -227 0
-1329 227 0
1331 -228 0
-1331 228 0
1333 -229 0
-1333 229 0
-1336 -230 0
1336 230 0
1221 -231 0
-1221 231 0
1222 -232 0
-1222 232 0
-1337 -233 0
1337 233 0
1338 -234 0
-1338 234 0
1339 -235 0
-1339 235 0
1340 -236 0
-1340 236 0
1341 -237 0
-1341 237 0
-1342 -238 0
1342 238 0
1229 -239 0
-1229 239 0
1230 -240 0
-1230 240 0
-1343 -241 0
1343 241 0
1232 -242 0
-1232 242 0
1233 -243 0
-1233 243 0
-1344 -244 0
1344 244 0
1235 -245 0
-1235 245 0
1236 -246 0
-1236 246 0
-1345 -247 0
1345 247 0
-4 -248 0
4 248 0
-1346 -249 0
1346 249 0
-3 -250 0
3 250 0
-1347 -251 0
1347 251 0
-2 -252 0
2 252 0
-1348 -253 0
1348 253 0
-1 -254 0
1 254 0
-1349 -255 0
1349 255 0
-255 -256 0
255 256 0
1350 -257 0
-1350 257 0
1352 -258 0
-1352 258 0
1354 -259 0
-1354 259 0
-1357 -260 0
1357 260 0
1250 -261 0
-1250 261 0
1251 -262 0
-1251 262 0
-1358 -263 0
1358 263 0
1359 -264 0
-1359 264 0
1360 -265 0
-1360 265 0
1361 -266 0
-1361 266 0
1362 -267 0
-1362 267 0
-1363 -268 0
1363 268 0
1258 -269 0
-1258 269 0
1259 -270 0
-1259 270 0
-1364 -271 0
1364 271 0
1261 -272 0
-1261 272 0
1262 -273 0
-1262 273 0
-1365 -274 0
1365 274 0
1264 -275 0
-1264 275 0
1265 -276 0
-1265 276 0
-1366 -277 0
1366 277 0
-16 -278 0
16 278 0
-1367 -279 0
1367 279 0
-15 -280 0
15 280 0
-1368 -281 0
1368 281 0
-14 -282 0
14 282 0
-1369 -283 0
1369 283 0
-13 -284 0
13 284 0
-1370 -285 0
1370 285 0
-285 -286 0
285 286 0
1371 -287 0
-1371 287 0
1373 -288 0
-1373 288 0
1375 -289 0
-1375 289 0
-1378 -290 0
1378 290 0
1279 -291 0
-1279 291 0
1280 -292 0
-1280 292 0
-1379 -293 0
1379 293 0
1374 -294 0
-1374 294 0
1380 -295 0
-1380 295 0
-290 -296 0
290 296 0
-1381 -297 0
1381 297 0
-200 -298 0
200 298 0
-1382 -299 0
1382 299 0
-230 -300 0
230 300 0
-1383 -301 0
1383 301 0
-260 -302 0
260 302 0
-1384 -303 0
1384 303 0
1385 -304 0
-1385 304 0
1386 -305 0
-1386 305 0
-1387 -306 0
1387 306 0
1389 -310 0
-1389 310 0
1392 -311 0
-1392 311 0
-1395 -312 0
1395 312 0
-1399 -313 0
1399 313 0
1402 -314 0
-1402 314 0
1405 -315 0
-1405 315 0
1408 -316 0
-1408 316 0
1411 -317 0
-1411 317 0
1414 -318 0
-1414 318 0
-33 -11 0
-33 27 0
11 -27 33 0
-34 11 0
-34 -27 0
-11 27 34 0
-33 35 0
-34 35 0
-35 33 34 0
-36 -10 0
-36 26 0
10 -26 36 0
-37 10 0
-37 -26 0
-10 26 37 0
-36 38 0
-37 38 0
-38 36 37 0
-39 -9 0
-39 25 0
9 -25 39 0
-40 9 0
-40 -25 0
-9 25 40 0
-39 41 0
-40 41 0
-41 39 40 0
-12 -42 0
12 42 0
-42 43 0
-28 43 0
-43 42 28 0
-11 -44 0
11 44 0
-44 45 0
-27 45 0
-45 44 27 0
-10 -46 0
10 46 0
-46 47 0
-26 47 0
-47 46 26 0
-9 -48 0
9 48 0
-48 49 0
-25 49 0
-49 48 25 0
-49 -50 0
49 50 0
-51 -41 0
-51 -47 0
41 47 51 0
-52 -38 0
-52 -41 0
-52 -45 0
38 41 45 52 0
-53 -35 0
-53 -38 0
-53 -41 0
-53 -43 0
35 38 41 43 53 0
-50 54 0
-51 54 0
-52 54 0
-53 54 0
-54 50 51 52 53 0
-55 -12 0
-55 28 0
12 -28 55 0
-56 12 0
-56 -28 0
-12 28 56 0
-55 57 0
-56 57 0
-57 55 56 0
-58 -57 0
-58 -35 0
-58 -38 0
-58 -41 0
57 35 38 41 58 0
-59 -54 0
-59 -58 0
54 58 59 0
-60 -54 0
-60 59 0
54 -59 60 0
-61 54 0
-61 -59 0
-54 59 61 0
-60 62 0
-61 62 0
-62 60 61 0
-63 -7 0
-63 23 0
7 -23 63 0
-64 7 0
-64 -23 0
-7 23 64 0
-63 65 0
-64 65 0
-65 63 64 0
-66 -6 0
-66 22 0
6 -22 66 0
-67 6 0
-67 -22 0
-6 22 67 0
-66 68 0
-67 68 0
-68 66 67 0
-69 -5 0
-69 21 0
5 -21 69 0
-70 5 0
-70 -21 0
-5 21 70 0
-69 71 0
-70 71 0
-71 69 70 0
-8 -72 0
8 72 0
-72 73 0
-24 73 0
-73 72 24 0
-7 -74 0
7 74 0
-74 75 0
-23 75 0
-75 74 23 0
-6 -76 0
6 76 0
-76 77 0
-22 77 0
-77 76 22 0
-5 -78 0
5 78 0
-78 79 0
-21 79 0
-79 78 21 0
-79 -80 0
79 80 0
-81 -71 0
-81 -77 0
71 77 81 0
-82 -68 0
-82 -71 0
-82 -75 0
68 71 75 82 0
-83 -65 0
-83 -68 0
-83 -71 0
-83 -73 0
65 68 71 73 83 0
-80 84 0
-81 84 0
-82 84 0
-83 84 0
-84 80 81 82 83 0
-85 -8 0
-85 24 0
8 -24 85 0
-86 8 0
-86 -24 0
-8 24 86 0
-85 87 0
-86 87 0
-87 85 86 0
-88 -87 0
-88 -65 0
-88 -68 0
-88 -71 0
87 65 68 71 88 0
-89 -84 0
-89 -88 0
84 88 89 0
-90 -84 0
-90 89 0
84 -89 90 0
-91 84 0
-91 -89 0
-84 89 91 0
-90 92 0
-91 92 0
-92 90 91 0
-93 -3 0
-93 19 0
3 -19 93 0
-94 3 0
-94 -19 0
-3 19 94 0
-93 95 0
-94 95 0
-95 93 94 0
-96 -2 0
-96 18 0
2 -18 96 0
-97 2 0
-97 -18 0
-2 18 97 0
-96 98 0
-97 98 0
-98 96 97 0
-99 -1 0
-99 17 0
1 -17 99 0
-100 1 0
-100 -17 0
-1 17 100 0
-99 101 0
-100 101 0
-101 99 100 0
-4 -102 0
4 102 0
-102 103 0
-20 103 0
-103 102 20 0
-3 -104 0
3 104 0
-104 105 0
-19 105 0
-105 104 19 0
-2 -106 0
2 106 0
-106 107 0
-18 107 0
-107 106 18 0
-1 -108 0
1 108 0
-108 109 0
-17 109 0
-109 108 17 0
-109 -110 0
109 110 0
-111 -101 0
-111 -107 0
101 107 111 0
-112 -98 0
-112 -101 0
-112 -105 0
98 101 105 112 0
-113 -95 0
-113 -98 0
-113 -101 0
-113 -103 0
95 98 101 103 113 0
-110 114 0
-111 114 0
-112 114 0
-113 114 0
-114 110 111 112 113 0
-115 -4 0
-115 20 0
4 -20 115 0
-116 4 0
-116 -20 0
-4 20 116 0
-115 117 0
-116 117 0
-117 115 116 0
-118 -117 0
-118 -95 0
-118 -98 0
-118 -101 0
117 95 98 101 118 0
-119 -114 0
-119 -118 0
114 118 119 0
-120 -114 0
-120 119 0
114 -119 120 0
-121 114 0
-121 -119 0
-114 119 121 0
-120 122 0
-121 122 0
-122 120 121 0
-123 -15 0
-123 31 0
15 -31 123 0
-124 15 0
-124 -31 0
-15 31 124 0
-123 125 0
-124 125 0
-125 123 124 0
-126 -14 0
-126 30 0
14 -30 126 0
-127 14 0
-127 -30 0
-14 30 127 0
-126 128 0
-127 128 0
-128 126 127 0
-129 -13 0
-129 29 0
13 -29 129 0
-130 13 0
-130 -29 0
-13 29 130 0
-129 131 0
-130 131 0
-131 129 130 0
-16 -132 0
16 132 0
-132 133 0
-32 133 0
-133 132 32 0
-15 -134 0
15 134 0
-134 135 0
-31 135 0
-135 134 31 0
-14 -136 0
14 136 0
-136 137 0
-30 137 0
-137 136 30 0
-13 -138 0
13 138 0
-138 139 0
-29 139 0
-139 138 29 0
-139 -140 0
139 140 0
-141 -131 0
-141 -137 0
131 137 141 0
-142 -128 0
-142 -131 0
-142 -135 0
128 131 135 142 0
-143 -125 0
-143 -128 0
-143 -131 0
-143 -133 0
125 128 131 133 143 0
-140 144 0
-141 144 0
-142 144 0
-143 144 0
-144 140 141 142 143 0
-145 -16 0
-145 32 0
16 -32 145 0
-146 16 0
-146 -32 0
-16 32 146 0
-145 147 0
-146 147 0
-147 145 146 0
-148 -147 0
-148 -125 0
-148 -128 0
-148 -131 0
147 125 128 131 148 0
-149 -144 0
-149 -148 0
144 148 149 0
-144 -150 0
144 150 0
-150 151 0
-149 151 0
-151 150 149 0
-54 -152 0
54 152 0
-152 153 0
-59 153 0
-153 152 59 0
-84 -154 0
84 154 0
-154 155 0
-89 155 0
-155 154 89 0
-114 -156 0
114 156 0
-156 157 0
-119 157 0
-157 156 119 0
-157 -158 0
157 158 0
-159 -122 0
-159 -155 0
122 155 159 0
-160 -92 0
-160 -122 0
-160 -153 0
92 122 153 160 0
-161 -62 0
-161 -92 0
-161 -122 0
-161 -151 0
62 92 122 151 161 0
-158 162 0
-159 162 0
-160 162 0
-161 162 0
-162 158 159 160 161 0
-163 -144 0
-163 149 0
144 -149 163 0
-164 144 0
-164 -149 0
-144 149 164 0
-163 165 0
-164 165 0
-165 163 164 0
-166 -165 0
-166 -62 0
-166 -92 0
-166 -122 0
165 62 92 122 166 0
-167 -162 0
-167 -166 0
162 166 167 0
-179 -11 0
-179 27 0
11 -27 179 0
-180 11 0
-180 -27 0
-11 27 180 0
-179 181 0
-180 181 0
-181 179 180 0
-182 -10 0
-182 26 0
10 -26 182 0
-183 10 0
-183 -26 0
-10 26 183 0
-182 184 0
-183 184 0
-184 182 183 0
-185 -9 0
-185 25 0
9 -25 185 0
-186 9 0
-186 -25 0
-9 25 186 0
-185 187 0
-186 187 0
-187 185 186 0
-12 -188 0
12 188 0
-188 189 0
-28 189 0
-189 188 28 0
-11 -190 0
11 190 0
-190 191 0
-27 191 0
-191 190 27 0
-10 -192 0
10 192 0
-192 193 0
-26 193 0
-193 192 26 0
-9 -194 0
9 194 0
-194 195 0
-25 195 0
-195 194 25 0
-195 -196 0
195 196 0
-197 -187 0
-197 -193 0
187 193 197 0
-198 -184 0
-198 -187 0
-198 -191 0
184 187 191 198 0
-199 -181 0
-199 -184 0
-199 -187 0
-199 -189 0
181 184 187 189 199 0
-196 200 0
-197 200 0
-198 200 0
-199 200 0
-200 196 197 198 199 0
-201 -12 0
-201 28 0
12 -28 201 0
-202 12 0
-202 -28 0
-12 28 202 0
-201 203 0
-202 203 0
-203 201 202 0
-204 -203 0
-204 -181 0
-204 -184 0
-204 -187 0
203 181 184 187 204 0
-205 -200 0
-205 -204 0
200 204 205 0
-206 -200 0
-206 205 0
200 -205 206 0
-207 200 0
-207 -205 0
-200 205 207 0
-206 208 0
-207 208 0
-208 206 207 0
-209 -7 0
-209 23 0
7 -23 209 0
-210 7 0
-210 -23 0
-7 23 210 0
-209 211 0
-210 211 0
-211 209 210 0
-212 -6 0
-212 22 0
6 -22 212 0
-213 6 0
-213 -22 0
-6 22 213 0
-212 214 0
-213 214 0
-214 212 213 0
-215 -5 0
-215 21 0
5 -21 215 0
-216 5 0
-216 -21 0
-5 21 216 0
-215 217 0
-216 217 0
-217 215 216 0
-8 -218 0
8 218 0
-218 219 0
-24 219 0
-219 218 24 0
-7 -220 0
7 220 0
-220 221 0
-23 221 0
-221 220 23 0
-6 -222 0
6 222 0
-222 223 0
-22 223 0
-223 222 22 0
-5 -224 0
5 224 0
-224 225 0
-21 225 0
-225 224 21 0
-225 -226 0
225 226 0
-227 -217 0
-227 -223 0
217 223 227 0
-228 -214 0
-228 -217 0
-228 -221 0
214 217 221 228 0
-229 -211 0
-229 -214 0
-229 -217 0
-229 -219 0
211 214 217 219 229 0
-226 230 0
-227 230 0
-228 230 0
-229 230 0
-230 226 227 228 229 0
-231 -8 0
-231 24 0
8 -24 231 0
-232 8 0
-232 -24 0
-8 24 232 0
-231 233 0
-232 233 0
-233 231 232 0
-234 -233 0
-234 -211 0
-234 -214 0
-234 -217 0
233 211 214 217 234 0
-235 -230 0
-235 -234 0
230 234 235 0
-236 -230 0
-236 235 0
230 -235 236 0
-237 230 0
-237 -235 0
-230 235 237 0
-236 238 0
-237 238 0
-238 236 237 0
-239 -3 0
-239 19 0
3 -19 239 0
-240 3 0
-240 -19 0
-3 19 240 0
-239 241 0
-240 241 0
-241 239 240 0
-242 -2 0
-242 18 0
2 -18 242 0
-243 2 0
-243 -18 0
-2 18 243 0
-242 244 0
-243 244 0
-244 242 243 0
-245 -1 0
-245 17 0
1 -17 245 0
-246 1 0
-246 -17 0
-1 17 246 0
-245 247 0
-246 247 0
-247 245 246 0
-4 -248 0
4 248 0
-248 249 0
-20 249 0
-249 248 20 0
-3 -250 0
3 250 0
-250 251 0
-19 251 0
-251 250 19 0
-2 -252 0
2 252 0
-252 253 0
-18 253 0
-253 252 18 0
-1 -254 0
1 254 0
-254 255 0
-17 255 0
-255 254 17 0
-255 -256 0
255 256 0
-257 -247 0
-257 -253 0
247 253 257 0
-258 -244 0
-258 -247 0
-258 -251 0
244 247 251 258 0
-259 -241 0
-259 -244 0
-259 -247 0
-259 -249 0
241 244 247 249 259 0
-256 260 0
-257 260 0
-258 260 0
-259 260 0
-260 256 257 258 259 0
-261 -4 0
-261 20 0
4 -20 261 0
-262 4 0
-262 -20 0
-4 20 262 0
-261 263 0
-262 263 0
-263 261 262 0
-264 -263 0
-264 -241 0
-264 -244 0
-264 -247 0
263 241 244 247 264 0
-265 -260 0
-265 -264 0
260 264 265 0
-266 -260 0
-266 265 0
260 -265 266 0
-267 260 0
-267 -265 0
-260 265 267 0
-266 268 0
-267 268 0
-268 266 267 0
-269 -15 0
-269 31 0
15 -31 269 0
-270 15 0
-270 -31 0
-15 31 270 0
-269 271 0
-270 271 0
-271 269 270 0
-272 -14 0
-272 30 0
14 -30 272 0
-273 14 0
-273 -30 0
-14 30 273 0
-272 274 0
-273 274 0
-274 272 273 0
-275 -13 0
-275 29 0
13 -29 275 0
-276 13 0
-276 -29 0
-13 29 276 0
-275 277 0
-276 277 0
-277 275 276 0
-16 -278 0
16 278 0
-278 279 0
-32 279 0
-279 278 32 0
-15 -280 0
15 280 0
-280 281 0
-31 281 0
-281 280 31 0
-14 -282 0
14 282 0
-282 283 0
-30 283 0
-283 282 30 0
-13 -284 0
13 284 0
-284 285 0
-29 285 0
-285 284 29 0
-285 -286 0
285 286 0
-287 -277 0
-287 -283 0
277 283 287 0
-288 -274 0
-288 -277 0
-288 -281 0
274 277 281 288 0
-289 -271 0
-289 -274 0
-289 -277 0
-289 -279 0
271 274 277 279 289 0
-286 290 0
-287 290 0
-288 290 0
-289 290 0
-290 286 287 288 289 0
-291 -16 0
-291 32 0
16 -32 291 0
-292 16 0
-292 -32 0
-16 32 292 0
-291 293 0
-292 293 0
-293 291 292 0
-294 -271 0
-294 -274 0
-294 -277 0
271 274 277 294 0
-295 -290 0
-295 -294 0
290 294 295 0
-290 -296 0
290 296 0
-296 297 0
-295 297 0
-297 296 295 0
-200 -298 0
200 298 0
-298 299 0
-205 299 0
-299 298 205 0
-230 -300 0
230 300 0
-300 301 0
-235 301 0
-301 300 235 0
-260 -302 0
260 302 0
-302 303 0
-265 303 0
-303 302 265 0
-304 -290 0
-304 295 0
290 -295 304 0
-305 290 0
-305 -295 0
-290 295 305 0
-304 306 0
-305 306 0
-306 304 305 0
-307 -167 168 0
-307 167 -168 0
307 -167 -168 0
307 167 168 0
-308 -166 170 0
-308 166 -170 0
308 -166 -170 0
308 166 170 0
-309 -162 169 0
-309 162 -169 0
309 -162 -169 0
309 162 169 0
-307 -308 -309 310 0
-310 307 0
-310 308 0
-310 309 0
-208 -171 -311 0
-208 171 311 0
208 -171 311 0
208 171 -311 0
-238 -172 -312 0
-238 172 312 0
238 -172 312 0
238 172 -312 0
-268 -173 -313 0
-268 173 313 0
268 -173 313 0
268 173 -313 0
-297 -174 -314 0
-297 174 314 0
297 -174 314 0
297 174 -314 0
-299 -175 -315 0
-299 175 315 0
299 -175 315 0
299 175 -315 0
-301 -176 -316 0
-301 176 316 0
301 -176 316 0
301 176 -316 0
-303 -177 -317 0
-303 177 317 0
303 -177 317 0
303 177 -317 0
-306 -178 -318 0
-306 178 318 0
306 -178 318 0
306 178 -318 0
311 312 313 314 315 316 317 318 310 0
-11 -1171 0
27 -1171 0
11 -27 1171 0
11 -1172 0
-27 -1172 0
-11 27 1172 0
-33 -1173 0
-34 -1173 0
33 34 1173 0
-10 -1174 0
26 -1174 0
10 -26 1174 0
10 -1175 0
-26 -1175 0
-10 26 1175 0
-36 -1176 0
-37 -1176 0
36 37 1176 0
-9 -1177 0
25 -1177 0
9 -25 1177 0
9 -1178 0
-25 -1178 0
-9 25 1178 0
-39 -1179 0
-40 -1179 0
39 40 1179 0
-28 -1180 0
-42 -1180 0
28 42 1180 0
-27 -1181 0
-44 -1181 0
27 44 1181 0
-26 -1182 0
-46 -1182 0
26 46 1182 0
-25 -1183 0
-48 -1183 0
25 48 1183 0
-41 -1184 0
-47 -1184 0
41 47 1184 0
-38 -1185 0
-41 -1185 0
38 41 1185 0
-45 -1186 0
1185 -1186 0
45 -1185 1186 0
-35 -1187 0
1185 -1187 0
35 -1185 1187 0
-43 -1188 0
1187 -1188 0
43 -1187 1188 0
-50 -1189 0
-51 -1189 0
50 51 1189 0
-52 -1190 0
-53 -1190 0
52 53 1190 0
1189 -1191 0
1190 -1191 0
-1189 -1190 1191 0
-12 -1192 0
28 -1192 0
12 -28 1192 0
12 -1193 0
-28 -1193 0
-12 28 1193 0
-55 -1194 0
-56 -1194 0
55 56 1194 0
-57 -1195 0
1187 -1195 0
57 -1187 1195 0
-54 -1196 0
-58 -1196 0
54 58 1196 0
-54 -1197 0
59 -1197 0
54 -59 1197 0
54 -1198 0
-59 -1198 0
-54 59 1198 0
-60 -1199 0
-61 -1199 0
60 61 1199 0
-7 -1200 0
23 -1200 0
7 -23 1200 0
7 -1201 0
-23 -1201 0
-7 23 1201 0
-63 -1202 0
-64 -1202 0
63 64 1202 0
-6 -1203 0
22 -1203 0
6 -22 1203 0
6 -1204 0
-22 -1204 0
-6 22 1204 0
-66 -1205 0
-67 -1205 0
66 67 1205 0
-5 -1206 0
21 -1206 0
5 -21 1206 0
5 -1207 0
-21 -1207 0
-5 21 1207 0
-69 -1208 0
-70 -1208 0
69 70 1208 0
-24 -1209 0
-72 -1209 0
24 72 1209 0
-23 -1210 0
-74 -1210 0
23 74 1210 0
-22 -1211 0
-76 -1211 0
22 76 1211 0
-21 -1212 0
-78 -1212 0
21 78 1212 0
-71 -1213 0
-77 -1213 0
71 77 1213 0
-68 -1214 0
-71 -1214 0
68 71 1214 0
-75 -1215 0
1214 -1215 0
75 -1214 1215 0
-65 -1216 0
1214 -1216 0
65 -1214 1216 0
-73 -1217 0
1216 -1217 0
73 -1216 1217 0
-80 -1218 0
-81 -1218 0
80 81 1218 0
-82 -1219 0
-83 -1219 0
82 83 1219 0
1218 -1220 0
1219 -1220 0
-1218 -1219 1220 0
-8 -1221 0
24 -1221 0
8 -24 1221 0
8 -1222 0
-24 -1222 0
-8 24 1222 0
-85 -1223 0
-86 -1223 0
85 86 1223 0
-87 -1224 0
1216 -1224 0
87 -1216 1224 0
-84 -1225 0
-88 -1225 0
84 88 1225 0
-84 -1226 0
89 -1226 0
84 -89 1226 0
84 -1227 0
-89 -1227 0
-84 89 1227 0
-90 -1228 0
-91 -1228 0
90 91 1228 0
-3 -1229 0
19 -1229 0
3 -19 1229 0
3 -1230 0
-19 -1230 0
-3 19 1230 0
-93 -1231 0
-94 -1231 0
93 94 1231 0
-2 -1232 0
18 -1232 0
2 -18 1232 0
2 -1233 0
-18 -1233 0
-2 18 1233 0
-96 -1234 0
-97 -1234 0
96 97 1234 0
-1 -1235 0
17 -1235 0
1 -17 1235 0
1 -1236 0
-17 -1236 0
-1 17 1236 0
-99 -1237 0
-100 -1237 0
99 100 1237 0
-20 -1238 0
-102 -1238 0
20 102 1238 0
-19 -1239 0
-104 -1239 0
19 104 1239 0
-18 -1240 0
-106 -1240 0
18 106 1240 0
-17 -1241 0
-108 -1241 0
17 108 1241 0
-101 -1242 0
-107 -1242 0
101 107 1242 0
-98 -1243 0
-101 -1243 0
98 101 1243 0
-105 -1244 0
1243 -1244 0
105 -1243 1244 0
-95 -1245 0
1243 -1245 0
95 -1243 1245 0
-103 -1246 0
1245 -1246 0
103 -1245 1246 0
-110 -1247 0
-111 -1247 0
110 111 1247 0
-112 -1248 0
-113 -1248 0
112 113 1248 0
1247 -1249 0
1248 -1249 0
-1247 -1248 1249 0
-4 -1250 0
20 -1250 0
4 -20 1250 0
4 -1251 0
-20 -1251 0
-4 20 1251 0
-115 -1252 0
-116 -1252 0
115 116 1252 0
-117 -1253 0
1245 -1253 0
117 -1245 1253 0
-114 -1254 0
-118 -1254 0
114 118 1254 0
-114 -1255 0
119 -1255 0
114 -119 1255 0
114 -1256 0
-119 -1256 0
-114 119 1256 0
-120 -1257 0
-121 -1257 0
120 121 1257 0
-15 -1258 0
31 -1258 0
15 -31 1258 0
15 -1259 0
-31 -1259 0
-15 31 1259 0
-123 -1260 0
-124 -1260 0
123 124 1260 0
-14 -1261 0
30 -1261 0
14 -30 1261 0
14 -1262 0
-30 -1262 0
-14 30 1262 0
-126 -1263 0
-127 -1263 0
126 127 1263 0
-13 -1264 0
29 -1264 0
13 -29 1264 0
13 -1265 0
-29 -1265 0
-13 29 1265 0
-129 -1266 0
-130 -1266 0
129 130 1266 0
-32 -1267 0
-132 -1267 0
32 132 1267 0
-31 -1268 0
-134 -1268 0
31 134 1268 0
-30 -1269 0
-136 -1269 0
30 136 1269 0
-29 -1270 0
-138 -1270 0
29 138 1270 0
-131 -1271 0
-137 -1271 0
131 137 1271 0
-128 -1272 0
-131 -1272 0
128 131 1272 0
-135 -1273 0
1272 -1273 0
135 -1272 1273 0
-125 -1274 0
1272 -1274 0
125 -1272 1274 0
-133 -1275 0
1274 -1275 0
133 -1274 1275 0
-140 -1276 0
-141 -1276 0
140 141 1276 0
-142 -1277 0
-143 -1277 0
142 143 1277 0
1276 -1278 0
1277 -1278 0
-1276 -1277 1278 0
-16 -1279 0
32 -1279 0
16 -32 1279 0
16 -1280 0
-32 -1280 0
-16 32 1280 0
-145 -1281 0
-146 -1281 0
145 146 1281 0
-147 -1282 0
1274 -1282 0
147 -1274 1282 0
-144 -1283 0
-148 -1283 0
144 148 1283 0
-149 -1284 0
-150 -1284 0
149 150 1284 0
-59 -1285 0
-152 -1285 0
59 152 1285 0
-89 -1286 0
-154 -1286 0
89 154 1286 0
-119 -1287 0
-156 -1287 0
119 156 1287 0
-122 -1288 0
-155 -1288 0
122 155 1288 0
-92 -1289 0
-122 -1289 0
92 122 1289 0
-153 -1290 0
1289 -1290 0
153 -1289 1290 0
-62 -1291 0
1289 -1291 0
62 -1289 1291 0
-151 -1292 0
1291 -1292 0
151 -1291 1292 0
-158 -1293 0
-159 -1293 0
158 159 1293 0
-160 -1294 0
-161 -1294 0
160 161 1294 0
1293 -1295 0
1294 -1295 0
-1293 -1294 1295 0
-144 -1296 0
149 -1296 0
144 -149 1296 0
144 -1297 0
-149 -1297 0
-144 149 1297 0
-163 -1298 0
-164 -1298 0
163 164 1298 0
-165 -1299 0
1291 -1299 0
165 -1291 1299 0
-162 -1300 0
-166 -1300 0
162 166 1300 0
-179 -1301 0
-180 -1301 0
179 180 1301 0
-182 -1302 0
-183 -1302 0
182 183 1302 0
-185 -1303 0
-186 -1303 0
185 186 1303 0
-28 -1304 0
-188 -1304 0
28 188 1304 0
-27 -1305 0
-190 -1305 0
27 190 1305 0
-26 -1306 0
-192 -1306 0
26 192 1306 0
-25 -1307 0
-194 -1307 0
25 194 1307 0
-187 -1308 0
-193 -1308 0
187 193 1308 0
-184 -1309 0
-187 -1309 0
184 187 1309 0
-191 -1310 0
1309 -1310 0
191 -1309 1310 0
-181 -1311 0
1309 -1311 0
181 -1309 1311 0
-189 -1312 0
1311 -1312 0
189 -1311 1312 0
-196 -1313 0
-197 -1313 0
196 197 1313 0
-198 -1314 0
-199 -1314 0
198 199 1314 0
1313 -1315 0
1314 -1315 0
-1313 -1314 1315 0
-201 -1316 0
-202 -1316 0
201 202 1316 0
-203 -1317 0
1311 -1317 0
203 -1311 1317 0
-200 -1318 0
-204 -1318 0
200 204 1318 0
-200 -1319 0
205 -1319 0
200 -205 1319 0
200 -1320 0
-205 -1320 0
-200 205 1320 0
-206 -1321 0
-207 -1321 0
206 207 1321 0
-209 -1322 0
-210 -1322 0
209 210 1322 0
-212 -1323 0
-213 -1323 0
212 213 1323 0
-215 -1324 0
-216 -1324 0
215 216 1324 0
-24 -1325 0
-218 -1325 0
24 218 1325 0
-23 -1326 0
-220 -1326 0
23 220 1326 0
-22 -1327 0
-222 -1327 0
22 222 1327 0
-21 -1328 0
-224 -1328 0
21 224 1328 0
-217 -1329 0
-223 -1329 0
217 223 1329 0
-214 -1330 0
-217 -1330 0
214 217 1330 0
-221 -1331 0
1330 -1331 0
221 -1330 1331 0
-211 -1332 0
1330 -1332 0
211 -1330 1332 0
-219 -1333 0
1332 -1333 0
219 -1332 1333 0
-226 -1334 0
-227 -1334 0
226 227 1334 0
-228 -1335 0
-229 -1335 0
228 229 1335 0
1334 -1336 0
1335 -1336 0
-1334 -1335 1336 0
-231 -1337 0
-232 -1337 0
231 232 1337 0
-233 -1338 0
1332 -1338 0
233 -1332 1338 0
-230 -1339 0
-234 -1339 0
230 234 1339 0
-230 -1340 0
235 -1340 0
230 -235 1340 0
230 -1341 0
-235 -1341 0
-230 235 1341 0
-236 -1342 0
-237 -1342 0
236 237 1342 0
-239 -1343 0
-240 -1343 0
239 240 1343 0
-242 -1344 0
-243 -1344 0
242 243 1344 0
-245 -1345 0
-246 -1345 0
245 246 1345 0
-20 -1346 0
-248 -1346 0
20 248 1346 0
-19 -1347 0
-250 -1347 0
19 250 1347 0
-18 -1348 0
-252 -1348 0
18 252 1348 0
-17 -1349 0
-254 -1349 0
17 254 1349 0
-247 -1350 0
-253 -1350 0
247 253 1350 0
-244 -1351 0
-247 -1351 0
244 247 1351 0
-251 -1352 0
1351 -1352 0
251 -1351 1352 0
-241 -1353 0
1351 -1353 0
241 -1351 1353 0
-249 -1354 0
1353 -1354 0
249 -1353 1354 0
-256 -1355 0
-257 -1355 0
256 257 1355 0
-258 -1356 0
-259 -1356 0
258 259 1356 0
1355 -1357 0
1356 -1357 0
-1355 -1356 1357 0
-261 -1358 0
-262 -1358 0
261 262 1358 0
-263 -1359 0
1353 -1359 0
263 -1353 1359 0
-260 -1360 0
-264 -1360 0
260 264 1360 0
-260 -1361 0
265 -1361 0
260 -265 1361 0
260 -1362 0
-265 -1362 0
-260 265 1362 0
-266 -1363 0
-267 -1363 0
266 267 1363 0
-269 -1364 0
-270 -1364 0
269 270 1364 0
-272 -1365 0
-273 -1365 0
272 273 1365 0
-275 -1366 0
-276 -1366 0
275 276 1366 0
-32 -1367 0
-278 -1367 0
32 278 1367 0
-31 -1368 0
-280 -1368 0
31 280 1368 0
-30 -1369 0
-282 -1369 0
30 282 1369 0
-29 -1370 0
-284 -1370 0
29 284 1370 0
-277 -1371 0
-283 -1371 0
277 283 1371 0
-274 -1372 0
-277 -1372 0
274 277 1372 0
-281 -1373 0
1372 -1373 0
281 -1372 1373 0
-271 -1374 0
1372 -1374 0
271 -1372 1374 0
-279 -1375 0
1374 -1375 0
279 -1374 1375 0
-286 -1376 0
-287 -1376 0
286 287 1376 0
-288 -1377 0
-289 -1377 0
288 289 1377 0
1376 -1378 0
1377 -1378 0
-1376 -1377 1378 0
-291 -1379 0
-292 -1379 0
291 292 1379 0
-290 -1380 0
-294 -1380 0
290 294 1380 0
-295 -1381 0
-296 -1381 0
295 296 1381 0
-205 -1382 0
-298 -1382 0
205 298 1382 0
-235 -1383 0
-300 -1383 0
235 300 1383 0
-265 -1384 0
-302 -1384 0
265 302 1384 0
-290 -1385 0
295 -1385 0
290 -295 1385 0
290 -1386 0
-295 -1386 0
-290 295 1386 0
-304 -1387 0
-305 -1387 0
304 305 1387 0
307 -1388 0
308 -1388 0
-307 -308 1388 0
309 -1389 0
1388 -1389 0
-309 -1388 1389 0
-171 -1390 0
-208 -1390 0
171 208 1390 0
171 -1391 0
208 -1391 0
-171 -208 1391 0
-1390 -1392 0
-1391 -1392 0
1390 1391 1392 0
172 -1393 0
-238 -1393 0
-172 238 1393 0
-172 -1394 0
238 -1394 0
172 -238 1394 0
-1393 -1395 0
-1394 -1395 0
1393 1394 1395 0
173 -1396 0
-268 -1396 0
-173 268 1396 0
-173 -1397 0
268 -1397 0
173 -268 1397 0
-1363 -1398 0
1397 -1398 0
1363 -1397 1398 0
-1396 -1399 0
-1398 -1399 0
1396 1398 1399 0
-174 -1400 0
-297 -1400 0
174 297 1400 0
174 -1401 0
297 -1401 0
-174 -297 1401 0
-1400 -1402 0
-1401 -1402 0
1400 1401 1402 0
-175 -1403 0
-299 -1403 0
175 299 1403 0
175 -1404 0
299 -1404 0
-175 -299 1404 0
-1403 -1405 0
-1404 -1405 0
1403 1404 1405 0
-176 -1406 0
-301 -1406 0
176 301 1406 0
176 -1407 0
301 -1407 0
-176 -301 1407 0
-1406 -1408 0
-1407 -1408 0
1406 1407 1408 0
-177 -1409 0
-303 -1409 0
177 303 1409 0
177 -1410 0
303 -1410 0
-177 -303 1410 0
-1409 -1411 0
-1410 -1411 0
1409 1410 1411 0
-178 -1412 0
-306 -1412 0
178 306 1412 0
178 -1413 0
306 -1413 0
-178 -306 1413 0
-1412 -1414 0
-1413 -1414 0
1412 1413 1414 0
